21° run output:
{
    "Function": "euclidA500.tsp",
    "Problem dimension": [
        484,
        438,
        386,
        293,
        217,
        218,
        20,
        418,
        164,
        312,
        406,
        237,
        114,
        34,
        204,
        309,
        200,
        276,
        391,
        156,
        380,
        457,
        245,
        389,
        350,
        212,
        126,
        277,
        291,
        281,
        96,
        481,
        249,
        116,
        403,
        187,
        113,
        169,
        48,
        99,
        256,
        398,
        456,
        213,
        478,
        424,
        168,
        149,
        129,
        476,
        177,
        413,
        370,
        432,
        487,
        178,
        88,
        375,
        145,
        224,
        367,
        348,
        284,
        355,
        62,
        56,
        26,
        311,
        152,
        486,
        372,
        469,
        361,
        12,
        401,
        340,
        15,
        483,
        307,
        42,
        382,
        318,
        199,
        466,
        280,
        488,
        490,
        9,
        451,
        33,
        171,
        151,
        43,
        436,
        173,
        144,
        352,
        24,
        161,
        308,
        167,
        131,
        39,
        87,
        266,
        320,
        322,
        163,
        208,
        102,
        6,
        426,
        104,
        306,
        184,
        492,
        216,
        334,
        491,
        364,
        342,
        50,
        18,
        495,
        3,
        37,
        359,
        272,
        181,
        45,
        121,
        327,
        285,
        450,
        388,
        28,
        19,
        150,
        381,
        222,
        219,
        431,
        52,
        146,
        25,
        194,
        459,
        174,
        449,
        78,
        460,
        479,
        10,
        35,
        330,
        319,
        283,
        467,
        427,
        290,
        206,
        384,
        404,
        343,
        44,
        127,
        305,
        437,
        251,
        41,
        496,
        336,
        47,
        101,
        453,
        461,
        115,
        117,
        230,
        240,
        148,
        287,
        303,
        195,
        262,
        70,
        454,
        57,
        233,
        368,
        65,
        464,
        214,
        371,
        446,
        397,
        345,
        369,
        203,
        259,
        412,
        110,
        393,
        246,
        198,
        186,
        408,
        396,
        286,
        160,
        124,
        84,
        136,
        248,
        202,
        53,
        241,
        128,
        139,
        30,
        390,
        442,
        175,
        159,
        356,
        106,
        130,
        258,
        147,
        112,
        103,
        157,
        97,
        23,
        201,
        443,
        387,
        93,
        493,
        8,
        346,
        252,
        223,
        60,
        91,
        255,
        226,
        63,
        59,
        221,
        192,
        452,
        170,
        428,
        489,
        231,
        337,
        98,
        107,
        176,
        357,
        328,
        228,
        265,
        197,
        135,
        141,
        289,
        165,
        323,
        119,
        363,
        416,
        247,
        402,
        329,
        207,
        471,
        190,
        7,
        353,
        433,
        423,
        261,
        137,
        268,
        196,
        315,
        475,
        179,
        182,
        410,
        374,
        29,
        378,
        434,
        358,
        105,
        49,
        279,
        316,
        392,
        120,
        122,
        183,
        275,
        100,
        297,
        338,
        288,
        349,
        463,
        339,
        458,
        85,
        215,
        210,
        440,
        229,
        395,
        473,
        260,
        123,
        235,
        81,
        31,
        155,
        225,
        67,
        326,
        46,
        264,
        54,
        325,
        301,
        419,
        109,
        441,
        332,
        333,
        108,
        13,
        72,
        21,
        383,
        94,
        314,
        80,
        79,
        22,
        341,
        313,
        472,
        331,
        435,
        142,
        140,
        448,
        366,
        407,
        292,
        494,
        376,
        294,
        188,
        274,
        302,
        270,
        415,
        238,
        399,
        269,
        263,
        73,
        360,
        95,
        257,
        254,
        138,
        244,
        242,
        209,
        111,
        61,
        158,
        211,
        153,
        133,
        317,
        474,
        227,
        499,
        470,
        1,
        83,
        11,
        480,
        405,
        282,
        74,
        77,
        86,
        344,
        417,
        172,
        17,
        462,
        55,
        220,
        296,
        411,
        400,
        64,
        185,
        92,
        335,
        234,
        189,
        362,
        90,
        82,
        2,
        5,
        295,
        205,
        300,
        373,
        304,
        468,
        324,
        385,
        236,
        444,
        32,
        243,
        379,
        180,
        76,
        414,
        267,
        4,
        191,
        409,
        14,
        447,
        321,
        66,
        482,
        497,
        351,
        250,
        68,
        273,
        429,
        239,
        377,
        420,
        69,
        394,
        253,
        232,
        75,
        132,
        310,
        365,
        439,
        425,
        498,
        134,
        455,
        71,
        271,
        465,
        193,
        125,
        143,
        16,
        299,
        477,
        38,
        51,
        485,
        445,
        166,
        154,
        40,
        354,
        422,
        278,
        27,
        347,
        298,
        430,
        0,
        118,
        36,
        89,
        162,
        421,
        58
    ],
    "Global Optimum": 0,
    "Algorithm": "Genetic algorithm",
    "Parameters": {
        "population": 30,
        "offspring": 30,
        "mutation probability": 0.002,
        "crossover probability": 0.9
    },
    "Fitness": 554514,
    "Solution": [
        484,
        438,
        386,
        293,
        217,
        218,
        20,
        418,
        164,
        312,
        406,
        237,
        114,
        34,
        204,
        309,
        200,
        276,
        391,
        156,
        380,
        457,
        245,
        389,
        350,
        212,
        126,
        277,
        291,
        281,
        96,
        481,
        249,
        116,
        403,
        187,
        113,
        169,
        48,
        99,
        256,
        398,
        456,
        213,
        478,
        424,
        168,
        149,
        129,
        476,
        177,
        413,
        370,
        432,
        487,
        178,
        88,
        375,
        145,
        224,
        367,
        348,
        284,
        355,
        62,
        56,
        26,
        311,
        152,
        486,
        372,
        469,
        361,
        12,
        401,
        340,
        15,
        483,
        307,
        42,
        382,
        318,
        199,
        466,
        280,
        488,
        490,
        9,
        451,
        33,
        171,
        151,
        43,
        436,
        173,
        144,
        352,
        24,
        161,
        308,
        167,
        131,
        39,
        87,
        266,
        320,
        322,
        163,
        208,
        102,
        6,
        426,
        104,
        306,
        184,
        492,
        216,
        334,
        491,
        364,
        342,
        50,
        18,
        495,
        3,
        37,
        359,
        272,
        181,
        45,
        121,
        327,
        285,
        450,
        388,
        28,
        19,
        150,
        381,
        222,
        219,
        431,
        52,
        146,
        25,
        194,
        459,
        174,
        449,
        78,
        460,
        479,
        10,
        35,
        330,
        319,
        283,
        467,
        427,
        290,
        206,
        384,
        404,
        343,
        44,
        127,
        305,
        437,
        251,
        41,
        496,
        336,
        47,
        101,
        453,
        461,
        115,
        117,
        230,
        240,
        148,
        287,
        303,
        195,
        262,
        70,
        454,
        57,
        233,
        368,
        65,
        464,
        214,
        371,
        446,
        397,
        345,
        369,
        203,
        259,
        412,
        110,
        393,
        246,
        198,
        186,
        408,
        396,
        286,
        160,
        124,
        84,
        136,
        248,
        202,
        53,
        241,
        128,
        139,
        30,
        390,
        442,
        175,
        159,
        356,
        106,
        130,
        258,
        147,
        112,
        103,
        157,
        97,
        23,
        201,
        443,
        387,
        93,
        493,
        8,
        346,
        252,
        223,
        60,
        91,
        255,
        226,
        63,
        59,
        221,
        192,
        452,
        170,
        428,
        489,
        231,
        337,
        98,
        107,
        176,
        357,
        328,
        228,
        265,
        197,
        135,
        141,
        289,
        165,
        323,
        119,
        363,
        416,
        247,
        402,
        329,
        207,
        471,
        190,
        7,
        353,
        433,
        423,
        261,
        137,
        268,
        196,
        315,
        475,
        179,
        182,
        410,
        374,
        29,
        378,
        434,
        358,
        105,
        49,
        279,
        316,
        392,
        120,
        122,
        183,
        275,
        100,
        297,
        338,
        288,
        349,
        463,
        339,
        458,
        85,
        215,
        210,
        440,
        229,
        395,
        473,
        260,
        123,
        235,
        81,
        31,
        155,
        225,
        67,
        326,
        46,
        264,
        54,
        325,
        301,
        419,
        109,
        441,
        332,
        333,
        108,
        13,
        72,
        21,
        383,
        94,
        314,
        80,
        79,
        22,
        341,
        313,
        472,
        331,
        435,
        142,
        140,
        448,
        366,
        407,
        292,
        494,
        376,
        294,
        188,
        274,
        302,
        270,
        415,
        238,
        399,
        269,
        263,
        73,
        360,
        95,
        257,
        254,
        138,
        244,
        242,
        209,
        111,
        61,
        158,
        211,
        153,
        133,
        317,
        474,
        227,
        499,
        470,
        1,
        83,
        11,
        480,
        405,
        282,
        74,
        77,
        86,
        344,
        417,
        172,
        17,
        462,
        55,
        220,
        296,
        411,
        400,
        64,
        185,
        92,
        335,
        234,
        189,
        362,
        90,
        82,
        2,
        5,
        295,
        205,
        300,
        373,
        304,
        468,
        324,
        385,
        236,
        444,
        32,
        243,
        379,
        180,
        76,
        414,
        267,
        4,
        191,
        409,
        14,
        447,
        321,
        66,
        482,
        497,
        351,
        250,
        68,
        273,
        429,
        239,
        377,
        420,
        69,
        394,
        253,
        232,
        75,
        132,
        310,
        365,
        439,
        425,
        498,
        134,
        455,
        71,
        271,
        465,
        193,
        125,
        143,
        16,
        299,
        477,
        38,
        51,
        485,
        445,
        166,
        154,
        40,
        354,
        422,
        278,
        27,
        347,
        298,
        430,
        0,
        118,
        36,
        89,
        162,
        421,
        58
    ],
    "Nb of functions evaluations": 400020,
    "Computational time in seconds": 1792.7977828979492,
    "Stopping criterion in evaluations": 400000
}